jobs  (incl. supersource/sink ):	52
RESOURCES
- renewable                 : 2 R
- nonrenewable              : 2 N
- doubly constrained        : 0 D
************************************************************************
PRECEDENCE RELATIONS:
jobnr.    #modes  #successors   successors
1	1	12		2 3 4 5 6 8 9 10 11 13 20 21 
2	3	10		51 49 48 35 34 29 25 24 18 7 
3	3	11		50 48 47 46 31 27 26 23 22 17 15 
4	3	10		49 48 46 45 44 33 31 27 24 12 
5	3	10		50 49 33 32 30 25 24 19 17 14 
6	3	10		49 47 45 40 32 31 30 28 27 16 
7	3	10		50 47 46 45 33 31 28 27 23 22 
8	3	7		49 48 47 42 24 23 18 
9	3	9		50 49 47 46 40 39 34 26 25 
10	3	8		51 50 48 41 38 31 23 17 
11	3	8		46 44 42 40 39 36 31 19 
12	3	8		51 43 41 40 34 32 29 28 
13	3	8		51 47 44 43 40 38 36 31 
14	3	8		48 47 46 44 41 40 38 36 
15	3	5		49 44 42 41 24 
16	3	5		50 48 46 44 23 
17	3	7		45 44 43 40 39 37 36 
18	3	5		43 41 39 33 31 
19	3	6		48 47 45 43 41 38 
20	3	5		42 39 38 37 36 
21	3	5		45 42 41 40 38 
22	3	3		37 36 32 
23	3	3		43 39 37 
24	3	3		40 38 36 
25	3	3		44 38 37 
26	3	3		45 42 37 
27	3	2		41 36 
28	3	2		38 36 
29	3	2		39 37 
30	3	2		46 44 
31	3	1		37 
32	3	1		42 
33	3	1		36 
34	3	1		36 
35	3	1		39 
36	3	1		52 
37	3	1		52 
38	3	1		52 
39	3	1		52 
40	3	1		52 
41	3	1		52 
42	3	1		52 
43	3	1		52 
44	3	1		52 
45	3	1		52 
46	3	1		52 
47	3	1		52 
48	3	1		52 
49	3	1		52 
50	3	1		52 
51	3	1		52 
52	1	0		
************************************************************************
REQUESTS/DURATIONS
jobnr.	mode	dur	R1	R2	N1	N2	
------------------------------------------------------------------------
1	1	0	0	0	0	0	
2	1	1	0	2	0	3	
	2	2	0	2	0	2	
	3	3	1	0	8	0	
3	1	7	3	0	5	0	
	2	8	0	3	4	0	
	3	10	0	2	4	0	
4	1	1	0	5	1	0	
	2	2	4	0	1	0	
	3	10	0	2	0	6	
5	1	1	7	0	3	0	
	2	4	6	0	0	8	
	3	6	4	0	0	8	
6	1	3	0	6	0	8	
	2	5	6	0	4	0	
	3	9	0	6	0	2	
7	1	5	3	0	8	0	
	2	7	0	5	0	4	
	3	7	2	0	7	0	
8	1	2	6	0	0	9	
	2	4	6	0	0	7	
	3	7	6	0	0	3	
9	1	3	0	7	2	0	
	2	5	0	5	0	8	
	3	9	8	0	1	0	
10	1	2	1	0	7	0	
	2	4	0	2	5	0	
	3	5	0	1	4	0	
11	1	2	9	0	5	0	
	2	4	8	0	4	0	
	3	5	0	3	3	0	
12	1	5	0	2	6	0	
	2	6	0	2	5	0	
	3	10	0	2	4	0	
13	1	5	4	0	8	0	
	2	9	4	0	0	7	
	3	9	0	6	8	0	
14	1	4	7	0	5	0	
	2	9	6	0	4	0	
	3	10	0	4	2	0	
15	1	1	3	0	0	10	
	2	5	0	3	6	0	
	3	8	2	0	0	2	
16	1	1	0	5	3	0	
	2	4	2	0	0	2	
	3	5	2	0	0	1	
17	1	3	0	4	0	6	
	2	7	5	0	0	4	
	3	10	3	0	3	0	
18	1	1	0	3	0	4	
	2	3	0	2	6	0	
	3	6	1	0	0	2	
19	1	2	9	0	3	0	
	2	4	9	0	2	0	
	3	9	0	1	2	0	
20	1	5	8	0	6	0	
	2	6	8	0	0	7	
	3	6	7	0	5	0	
21	1	4	3	0	0	5	
	2	5	3	0	0	3	
	3	9	0	5	0	3	
22	1	4	5	0	0	7	
	2	5	0	8	0	5	
	3	9	3	0	0	3	
23	1	4	0	5	7	0	
	2	7	9	0	3	0	
	3	9	0	4	2	0	
24	1	1	0	5	9	0	
	2	4	0	2	0	4	
	3	6	9	0	0	2	
25	1	3	10	0	9	0	
	2	7	0	5	0	5	
	3	10	5	0	9	0	
26	1	2	0	9	0	8	
	2	4	6	0	6	0	
	3	10	0	5	0	6	
27	1	2	0	6	0	6	
	2	3	5	0	0	4	
	3	9	0	3	3	0	
28	1	5	8	0	0	4	
	2	9	7	0	0	2	
	3	10	0	6	0	2	
29	1	5	0	7	10	0	
	2	6	6	0	0	6	
	3	8	4	0	0	4	
30	1	2	0	7	2	0	
	2	6	6	0	2	0	
	3	9	0	4	2	0	
31	1	2	0	7	0	10	
	2	3	0	6	6	0	
	3	6	0	4	0	6	
32	1	2	8	0	10	0	
	2	3	8	0	9	0	
	3	9	8	0	8	0	
33	1	1	0	6	0	4	
	2	2	7	0	4	0	
	3	4	0	3	0	3	
34	1	2	0	4	0	4	
	2	3	1	0	0	2	
	3	6	0	3	0	2	
35	1	1	0	7	2	0	
	2	9	0	6	0	4	
	3	9	4	0	1	0	
36	1	3	0	10	5	0	
	2	4	0	9	3	0	
	3	8	2	0	2	0	
37	1	3	0	3	0	4	
	2	4	3	0	0	4	
	3	6	0	1	2	0	
38	1	1	0	6	0	6	
	2	4	0	4	0	3	
	3	5	0	3	1	0	
39	1	1	0	6	0	7	
	2	4	6	0	2	0	
	3	5	0	4	2	0	
40	1	5	0	8	4	0	
	2	9	0	7	0	4	
	3	9	2	0	0	4	
41	1	4	9	0	8	0	
	2	4	8	0	0	8	
	3	7	0	5	3	0	
42	1	7	8	0	0	4	
	2	8	0	5	8	0	
	3	9	0	5	7	0	
43	1	3	0	4	4	0	
	2	3	8	0	0	1	
	3	5	0	2	0	1	
44	1	1	0	6	10	0	
	2	2	3	0	0	7	
	3	5	1	0	6	0	
45	1	3	10	0	0	9	
	2	4	0	10	0	9	
	3	10	0	10	8	0	
46	1	6	3	0	9	0	
	2	8	0	1	7	0	
	3	10	2	0	7	0	
47	1	1	3	0	8	0	
	2	8	3	0	7	0	
	3	10	2	0	7	0	
48	1	4	0	5	8	0	
	2	5	0	3	0	8	
	3	10	0	2	4	0	
49	1	5	9	0	0	4	
	2	6	0	5	0	5	
	3	7	0	5	0	4	
50	1	3	10	0	7	0	
	2	7	0	7	5	0	
	3	8	0	7	0	1	
51	1	2	0	5	0	6	
	2	6	0	5	8	0	
	3	9	3	0	0	1	
52	1	0	0	0	0	0	
************************************************************************

 RESOURCE AVAILABILITIES 
	R 1	R 2	N 1	N 2
	82	64	198	167

************************************************************************
